p edge 1458 1948
v 1 2
v 2 3
v 3 4
v 4 5
v 5 6
v 6 7
v 7 8
v 8 9
v 9 10
v 10 11
v 11 12
v 12 13
v 13 14
v 14 15
v 15 16
v 16 17
v 17 18
v 18 19
v 19 20
v 20 21
v 21 22
v 22 23
v 23 24
v 24 25
v 25 26
v 26 27
v 27 28
v 28 29
v 29 30
v 30 31
v 31 32
v 32 33
v 33 34
v 34 35
v 35 36
v 36 37
v 37 38
v 38 39
v 39 40
v 40 41
v 41 42
v 42 43
v 43 44
v 44 45
v 45 46
v 46 47
v 47 48
v 48 49
v 49 50
v 50 51
v 51 52
v 52 53
v 53 54
v 54 55
v 55 56
v 56 57
v 57 58
v 58 59
v 59 60
v 60 61
v 61 62
v 62 63
v 63 64
v 64 65
v 65 66
v 66 67
v 67 68
v 68 69
v 69 70
v 70 71
v 71 72
v 72 73
v 73 74
v 74 75
v 75 76
v 76 77
v 77 78
v 78 79
v 79 80
v 80 81
v 81 82
v 82 83
v 83 84
v 84 85
v 85 86
v 86 87
v 87 88
v 88 89
v 89 90
v 90 91
v 91 92
v 92 93
v 93 94
v 94 95
v 95 96
v 96 97
v 97 98
v 98 99
v 99 100
v 100 101
v 101 102
v 102 103
v 103 104
v 104 105
v 105 106
v 106 107
v 107 108
v 108 109
v 109 110
v 110 111
v 111 112
v 112 113
v 113 114
v 114 115
v 115 116
v 116 117
v 117 118
v 118 119
v 119 120
v 120 121
v 121 122
v 122 123
v 123 124
v 124 125
v 125 126
v 126 127
v 127 128
v 128 129
v 129 130
v 130 131
v 131 132
v 132 133
v 133 134
v 134 135
v 135 136
v 136 137
v 137 138
v 138 139
v 139 140
v 140 141
v 141 142
v 142 143
v 143 144
v 144 145
v 145 146
v 146 147
v 147 148
v 148 149
v 149 150
v 150 151
v 151 152
v 152 153
v 153 154
v 154 155
v 155 156
v 156 157
v 157 158
v 158 159
v 159 160
v 160 161
v 161 162
v 162 163
v 163 164
v 164 165
v 165 166
v 166 167
v 167 168
v 168 169
v 169 170
v 170 171
v 171 172
v 172 173
v 173 174
v 174 175
v 175 176
v 176 177
v 177 178
v 178 179
v 179 180
v 180 181
v 181 182
v 182 183
v 183 184
v 184 185
v 185 186
v 186 187
v 187 188
v 188 189
v 189 190
v 190 191
v 191 192
v 192 193
v 193 194
v 194 195
v 195 196
v 196 197
v 197 198
v 198 199
v 199 0
v 200 1
v 201 2
v 202 3
v 203 4
v 204 5
v 205 6
v 206 7
v 207 8
v 208 9
v 209 10
v 210 11
v 211 12
v 212 13
v 213 14
v 214 15
v 215 16
v 216 17
v 217 18
v 218 19
v 219 20
v 220 21
v 221 22
v 222 23
v 223 24
v 224 25
v 225 26
v 226 27
v 227 28
v 228 29
v 229 30
v 230 31
v 231 32
v 232 33
v 233 34
v 234 35
v 235 36
v 236 37
v 237 38
v 238 39
v 239 40
v 240 41
v 241 42
v 242 43
v 243 44
v 244 45
v 245 46
v 246 47
v 247 48
v 248 49
v 249 50
v 250 51
v 251 52
v 252 53
v 253 54
v 254 55
v 255 56
v 256 57
v 257 58
v 258 59
v 259 60
v 260 61
v 261 62
v 262 63
v 263 64
v 264 65
v 265 66
v 266 67
v 267 68
v 268 69
v 269 70
v 270 71
v 271 72
v 272 73
v 273 74
v 274 75
v 275 76
v 276 77
v 277 78
v 278 79
v 279 80
v 280 81
v 281 82
v 282 83
v 283 84
v 284 85
v 285 86
v 286 87
v 287 88
v 288 89
v 289 90
v 290 91
v 291 92
v 292 93
v 293 94
v 294 95
v 295 96
v 296 97
v 297 98
v 298 99
v 299 100
v 300 101
v 301 102
v 302 103
v 303 104
v 304 105
v 305 106
v 306 107
v 307 108
v 308 109
v 309 110
v 310 111
v 311 112
v 312 113
v 313 114
v 314 115
v 315 116
v 316 117
v 317 118
v 318 119
v 319 120
v 320 121
v 321 122
v 322 123
v 323 124
v 324 125
v 325 126
v 326 127
v 327 128
v 328 129
v 329 130
v 330 131
v 331 132
v 332 133
v 333 134
v 334 135
v 335 136
v 336 137
v 337 138
v 338 139
v 339 140
v 340 141
v 341 142
v 342 143
v 343 144
v 344 145
v 345 146
v 346 147
v 347 148
v 348 149
v 349 150
v 350 151
v 351 152
v 352 153
v 353 154
v 354 155
v 355 156
v 356 157
v 357 158
v 358 159
v 359 160
v 360 161
v 361 162
v 362 163
v 363 164
v 364 165
v 365 166
v 366 167
v 367 168
v 368 169
v 369 170
v 370 171
v 371 172
v 372 173
v 373 174
v 374 175
v 375 176
v 376 177
v 377 178
v 378 179
v 379 180
v 380 181
v 381 182
v 382 183
v 383 184
v 384 185
v 385 186
v 386 187
v 387 188
v 388 189
v 389 190
v 390 191
v 391 192
v 392 193
v 393 194
v 394 195
v 395 196
v 396 197
v 397 198
v 398 199
v 399 0
v 400 1
v 401 2
v 402 3
v 403 4
v 404 5
v 405 6
v 406 7
v 407 8
v 408 9
v 409 10
v 410 11
v 411 12
v 412 13
v 413 14
v 414 15
v 415 16
v 416 17
v 417 18
v 418 19
v 419 20
v 420 21
v 421 22
v 422 23
v 423 24
v 424 25
v 425 26
v 426 27
v 427 28
v 428 29
v 429 30
v 430 31
v 431 32
v 432 33
v 433 34
v 434 35
v 435 36
v 436 37
v 437 38
v 438 39
v 439 40
v 440 41
v 441 42
v 442 43
v 443 44
v 444 45
v 445 46
v 446 47
v 447 48
v 448 49
v 449 50
v 450 51
v 451 52
v 452 53
v 453 54
v 454 55
v 455 56
v 456 57
v 457 58
v 458 59
v 459 60
v 460 61
v 461 62
v 462 63
v 463 64
v 464 65
v 465 66
v 466 67
v 467 68
v 468 69
v 469 70
v 470 71
v 471 72
v 472 73
v 473 74
v 474 75
v 475 76
v 476 77
v 477 78
v 478 79
v 479 80
v 480 81
v 481 82
v 482 83
v 483 84
v 484 85
v 485 86
v 486 87
v 487 88
v 488 89
v 489 90
v 490 91
v 491 92
v 492 93
v 493 94
v 494 95
v 495 96
v 496 97
v 497 98
v 498 99
v 499 100
v 500 101
v 501 102
v 502 103
v 503 104
v 504 105
v 505 106
v 506 107
v 507 108
v 508 109
v 509 110
v 510 111
v 511 112
v 512 113
v 513 114
v 514 115
v 515 116
v 516 117
v 517 118
v 518 119
v 519 120
v 520 121
v 521 122
v 522 123
v 523 124
v 524 125
v 525 126
v 526 127
v 527 128
v 528 129
v 529 130
v 530 131
v 531 132
v 532 133
v 533 134
v 534 135
v 535 136
v 536 137
v 537 138
v 538 139
v 539 140
v 540 141
v 541 142
v 542 143
v 543 144
v 544 145
v 545 146
v 546 147
v 547 148
v 548 149
v 549 150
v 550 151
v 551 152
v 552 153
v 553 154
v 554 155
v 555 156
v 556 157
v 557 158
v 558 159
v 559 160
v 560 161
v 561 162
v 562 163
v 563 164
v 564 165
v 565 166
v 566 167
v 567 168
v 568 169
v 569 170
v 570 171
v 571 172
v 572 173
v 573 174
v 574 175
v 575 176
v 576 177
v 577 178
v 578 179
v 579 180
v 580 181
v 581 182
v 582 183
v 583 184
v 584 185
v 585 186
v 586 187
v 587 188
v 588 189
v 589 190
v 590 191
v 591 192
v 592 193
v 593 194
v 594 195
v 595 196
v 596 197
v 597 198
v 598 199
v 599 0
v 600 1
v 601 2
v 602 3
v 603 4
v 604 5
v 605 6
v 606 7
v 607 8
v 608 9
v 609 10
v 610 11
v 611 12
v 612 13
v 613 14
v 614 15
v 615 16
v 616 17
v 617 18
v 618 19
v 619 20
v 620 21
v 621 22
v 622 23
v 623 24
v 624 25
v 625 26
v 626 27
v 627 28
v 628 29
v 629 30
v 630 31
v 631 32
v 632 33
v 633 34
v 634 35
v 635 36
v 636 37
v 637 38
v 638 39
v 639 40
v 640 41
v 641 42
v 642 43
v 643 44
v 644 45
v 645 46
v 646 47
v 647 48
v 648 49
v 649 50
v 650 51
v 651 52
v 652 53
v 653 54
v 654 55
v 655 56
v 656 57
v 657 58
v 658 59
v 659 60
v 660 61
v 661 62
v 662 63
v 663 64
v 664 65
v 665 66
v 666 67
v 667 68
v 668 69
v 669 70
v 670 71
v 671 72
v 672 73
v 673 74
v 674 75
v 675 76
v 676 77
v 677 78
v 678 79
v 679 80
v 680 81
v 681 82
v 682 83
v 683 84
v 684 85
v 685 86
v 686 87
v 687 88
v 688 89
v 689 90
v 690 91
v 691 92
v 692 93
v 693 94
v 694 95
v 695 96
v 696 97
v 697 98
v 698 99
v 699 100
v 700 101
v 701 102
v 702 103
v 703 104
v 704 105
v 705 106
v 706 107
v 707 108
v 708 109
v 709 110
v 710 111
v 711 112
v 712 113
v 713 114
v 714 115
v 715 116
v 716 117
v 717 118
v 718 119
v 719 120
v 720 121
v 721 122
v 722 123
v 723 124
v 724 125
v 725 126
v 726 127
v 727 128
v 728 129
v 729 130
v 730 131
v 731 132
v 732 133
v 733 134
v 734 135
v 735 136
v 736 137
v 737 138
v 738 139
v 739 140
v 740 141
v 741 142
v 742 143
v 743 144
v 744 145
v 745 146
v 746 147
v 747 148
v 748 149
v 749 150
v 750 151
v 751 152
v 752 153
v 753 154
v 754 155
v 755 156
v 756 157
v 757 158
v 758 159
v 759 160
v 760 161
v 761 162
v 762 163
v 763 164
v 764 165
v 765 166
v 766 167
v 767 168
v 768 169
v 769 170
v 770 171
v 771 172
v 772 173
v 773 174
v 774 175
v 775 176
v 776 177
v 777 178
v 778 179
v 779 180
v 780 181
v 781 182
v 782 183
v 783 184
v 784 185
v 785 186
v 786 187
v 787 188
v 788 189
v 789 190
v 790 191
v 791 192
v 792 193
v 793 194
v 794 195
v 795 196
v 796 197
v 797 198
v 798 199
v 799 0
v 800 1
v 801 2
v 802 3
v 803 4
v 804 5
v 805 6
v 806 7
v 807 8
v 808 9
v 809 10
v 810 11
v 811 12
v 812 13
v 813 14
v 814 15
v 815 16
v 816 17
v 817 18
v 818 19
v 819 20
v 820 21
v 821 22
v 822 23
v 823 24
v 824 25
v 825 26
v 826 27
v 827 28
v 828 29
v 829 30
v 830 31
v 831 32
v 832 33
v 833 34
v 834 35
v 835 36
v 836 37
v 837 38
v 838 39
v 839 40
v 840 41
v 841 42
v 842 43
v 843 44
v 844 45
v 845 46
v 846 47
v 847 48
v 848 49
v 849 50
v 850 51
v 851 52
v 852 53
v 853 54
v 854 55
v 855 56
v 856 57
v 857 58
v 858 59
v 859 60
v 860 61
v 861 62
v 862 63
v 863 64
v 864 65
v 865 66
v 866 67
v 867 68
v 868 69
v 869 70
v 870 71
v 871 72
v 872 73
v 873 74
v 874 75
v 875 76
v 876 77
v 877 78
v 878 79
v 879 80
v 880 81
v 881 82
v 882 83
v 883 84
v 884 85
v 885 86
v 886 87
v 887 88
v 888 89
v 889 90
v 890 91
v 891 92
v 892 93
v 893 94
v 894 95
v 895 96
v 896 97
v 897 98
v 898 99
v 899 100
v 900 101
v 901 102
v 902 103
v 903 104
v 904 105
v 905 106
v 906 107
v 907 108
v 908 109
v 909 110
v 910 111
v 911 112
v 912 113
v 913 114
v 914 115
v 915 116
v 916 117
v 917 118
v 918 119
v 919 120
v 920 121
v 921 122
v 922 123
v 923 124
v 924 125
v 925 126
v 926 127
v 927 128
v 928 129
v 929 130
v 930 131
v 931 132
v 932 133
v 933 134
v 934 135
v 935 136
v 936 137
v 937 138
v 938 139
v 939 140
v 940 141
v 941 142
v 942 143
v 943 144
v 944 145
v 945 146
v 946 147
v 947 148
v 948 149
v 949 150
v 950 151
v 951 152
v 952 153
v 953 154
v 954 155
v 955 156
v 956 157
v 957 158
v 958 159
v 959 160
v 960 161
v 961 162
v 962 163
v 963 164
v 964 165
v 965 166
v 966 167
v 967 168
v 968 169
v 969 170
v 970 171
v 971 172
v 972 173
v 973 174
v 974 175
v 975 176
v 976 177
v 977 178
v 978 179
v 979 180
v 980 181
v 981 182
v 982 183
v 983 184
v 984 185
v 985 186
v 986 187
v 987 188
v 988 189
v 989 190
v 990 191
v 991 192
v 992 193
v 993 194
v 994 195
v 995 196
v 996 197
v 997 198
v 998 199
v 999 0
v 1000 1
v 1001 2
v 1002 3
v 1003 4
v 1004 5
v 1005 6
v 1006 7
v 1007 8
v 1008 9
v 1009 10
v 1010 11
v 1011 12
v 1012 13
v 1013 14
v 1014 15
v 1015 16
v 1016 17
v 1017 18
v 1018 19
v 1019 20
v 1020 21
v 1021 22
v 1022 23
v 1023 24
v 1024 25
v 1025 26
v 1026 27
v 1027 28
v 1028 29
v 1029 30
v 1030 31
v 1031 32
v 1032 33
v 1033 34
v 1034 35
v 1035 36
v 1036 37
v 1037 38
v 1038 39
v 1039 40
v 1040 41
v 1041 42
v 1042 43
v 1043 44
v 1044 45
v 1045 46
v 1046 47
v 1047 48
v 1048 49
v 1049 50
v 1050 51
v 1051 52
v 1052 53
v 1053 54
v 1054 55
v 1055 56
v 1056 57
v 1057 58
v 1058 59
v 1059 60
v 1060 61
v 1061 62
v 1062 63
v 1063 64
v 1064 65
v 1065 66
v 1066 67
v 1067 68
v 1068 69
v 1069 70
v 1070 71
v 1071 72
v 1072 73
v 1073 74
v 1074 75
v 1075 76
v 1076 77
v 1077 78
v 1078 79
v 1079 80
v 1080 81
v 1081 82
v 1082 83
v 1083 84
v 1084 85
v 1085 86
v 1086 87
v 1087 88
v 1088 89
v 1089 90
v 1090 91
v 1091 92
v 1092 93
v 1093 94
v 1094 95
v 1095 96
v 1096 97
v 1097 98
v 1098 99
v 1099 100
v 1100 101
v 1101 102
v 1102 103
v 1103 104
v 1104 105
v 1105 106
v 1106 107
v 1107 108
v 1108 109
v 1109 110
v 1110 111
v 1111 112
v 1112 113
v 1113 114
v 1114 115
v 1115 116
v 1116 117
v 1117 118
v 1118 119
v 1119 120
v 1120 121
v 1121 122
v 1122 123
v 1123 124
v 1124 125
v 1125 126
v 1126 127
v 1127 128
v 1128 129
v 1129 130
v 1130 131
v 1131 132
v 1132 133
v 1133 134
v 1134 135
v 1135 136
v 1136 137
v 1137 138
v 1138 139
v 1139 140
v 1140 141
v 1141 142
v 1142 143
v 1143 144
v 1144 145
v 1145 146
v 1146 147
v 1147 148
v 1148 149
v 1149 150
v 1150 151
v 1151 152
v 1152 153
v 1153 154
v 1154 155
v 1155 156
v 1156 157
v 1157 158
v 1158 159
v 1159 160
v 1160 161
v 1161 162
v 1162 163
v 1163 164
v 1164 165
v 1165 166
v 1166 167
v 1167 168
v 1168 169
v 1169 170
v 1170 171
v 1171 172
v 1172 173
v 1173 174
v 1174 175
v 1175 176
v 1176 177
v 1177 178
v 1178 179
v 1179 180
v 1180 181
v 1181 182
v 1182 183
v 1183 184
v 1184 185
v 1185 186
v 1186 187
v 1187 188
v 1188 189
v 1189 190
v 1190 191
v 1191 192
v 1192 193
v 1193 194
v 1194 195
v 1195 196
v 1196 197
v 1197 198
v 1198 199
v 1199 0
v 1200 1
v 1201 2
v 1202 3
v 1203 4
v 1204 5
v 1205 6
v 1206 7
v 1207 8
v 1208 9
v 1209 10
v 1210 11
v 1211 12
v 1212 13
v 1213 14
v 1214 15
v 1215 16
v 1216 17
v 1217 18
v 1218 19
v 1219 20
v 1220 21
v 1221 22
v 1222 23
v 1223 24
v 1224 25
v 1225 26
v 1226 27
v 1227 28
v 1228 29
v 1229 30
v 1230 31
v 1231 32
v 1232 33
v 1233 34
v 1234 35
v 1235 36
v 1236 37
v 1237 38
v 1238 39
v 1239 40
v 1240 41
v 1241 42
v 1242 43
v 1243 44
v 1244 45
v 1245 46
v 1246 47
v 1247 48
v 1248 49
v 1249 50
v 1250 51
v 1251 52
v 1252 53
v 1253 54
v 1254 55
v 1255 56
v 1256 57
v 1257 58
v 1258 59
v 1259 60
v 1260 61
v 1261 62
v 1262 63
v 1263 64
v 1264 65
v 1265 66
v 1266 67
v 1267 68
v 1268 69
v 1269 70
v 1270 71
v 1271 72
v 1272 73
v 1273 74
v 1274 75
v 1275 76
v 1276 77
v 1277 78
v 1278 79
v 1279 80
v 1280 81
v 1281 82
v 1282 83
v 1283 84
v 1284 85
v 1285 86
v 1286 87
v 1287 88
v 1288 89
v 1289 90
v 1290 91
v 1291 92
v 1292 93
v 1293 94
v 1294 95
v 1295 96
v 1296 97
v 1297 98
v 1298 99
v 1299 100
v 1300 101
v 1301 102
v 1302 103
v 1303 104
v 1304 105
v 1305 106
v 1306 107
v 1307 108
v 1308 109
v 1309 110
v 1310 111
v 1311 112
v 1312 113
v 1313 114
v 1314 115
v 1315 116
v 1316 117
v 1317 118
v 1318 119
v 1319 120
v 1320 121
v 1321 122
v 1322 123
v 1323 124
v 1324 125
v 1325 126
v 1326 127
v 1327 128
v 1328 129
v 1329 130
v 1330 131
v 1331 132
v 1332 133
v 1333 134
v 1334 135
v 1335 136
v 1336 137
v 1337 138
v 1338 139
v 1339 140
v 1340 141
v 1341 142
v 1342 143
v 1343 144
v 1344 145
v 1345 146
v 1346 147
v 1347 148
v 1348 149
v 1349 150
v 1350 151
v 1351 152
v 1352 153
v 1353 154
v 1354 155
v 1355 156
v 1356 157
v 1357 158
v 1358 159
v 1359 160
v 1360 161
v 1361 162
v 1362 163
v 1363 164
v 1364 165
v 1365 166
v 1366 167
v 1367 168
v 1368 169
v 1369 170
v 1370 171
v 1371 172
v 1372 173
v 1373 174
v 1374 175
v 1375 176
v 1376 177
v 1377 178
v 1378 179
v 1379 180
v 1380 181
v 1381 182
v 1382 183
v 1383 184
v 1384 185
v 1385 186
v 1386 187
v 1387 188
v 1388 189
v 1389 190
v 1390 191
v 1391 192
v 1392 193
v 1393 194
v 1394 195
v 1395 196
v 1396 197
v 1397 198
v 1398 199
v 1399 0
v 1400 1
v 1401 2
v 1402 3
v 1403 4
v 1404 5
v 1405 6
v 1406 7
v 1407 8
v 1408 9
v 1409 10
v 1410 11
v 1411 12
v 1412 13
v 1413 14
v 1414 15
v 1415 16
v 1416 17
v 1417 18
v 1418 19
v 1419 20
v 1420 21
v 1421 22
v 1422 23
v 1423 24
v 1424 25
v 1425 26
v 1426 27
v 1427 28
v 1428 29
v 1429 30
v 1430 31
v 1431 32
v 1432 33
v 1433 34
v 1434 35
v 1435 36
v 1436 37
v 1437 38
v 1438 39
v 1439 40
v 1440 41
v 1441 42
v 1442 43
v 1443 44
v 1444 45
v 1445 46
v 1446 47
v 1447 48
v 1448 49
v 1449 50
v 1450 51
v 1451 52
v 1452 53
v 1453 54
v 1454 55
v 1455 56
v 1456 57
v 1457 58
v 1458 59
e 24 1
e 595 1
e 1143 1
e 1392 1
e 1405 1
e 156 2
e 951 2
e 1033 2
e 459 3
e 997 3
e 595 4
e 27 5
e 778 5
e 367 6
e 284 7
e 444 7
e 1141 7
e 807 8
e 819 8
e 1128 8
e 422 9
e 465 9
e 688 9
e 216 10
e 72 11
e 154 11
e 291 11
e 601 11
e 626 11
e 728 11
e 933 11
e 1203 11
e 1216 11
e 81 12
e 247 12
e 469 12
e 626 12
e 777 12
e 1074 12
e 1180 12
e 1197 12
e 1198 12
e 1199 12
e 1200 12
e 98 13
e 433 13
e 567 13
e 738 13
e 1273 13
e 329 14
e 942 14
e 1105 15
e 345 16
e 567 17
e 844 17
e 1240 17
e 1273 17
e 1368 17
e 85 18
e 114 18
e 192 19
e 375 20
e 623 20
e 1067 20
e 1195 20
e 1240 20
e 1361 20
e 1362 20
e 706 21
e 165 22
e 202 22
e 288 22
e 426 22
e 810 22
e 1115 22
e 585 23
e 152 24
e 690 24
e 913 24
e 1439 24
e 1440 24
e 166 25
e 263 25
e 347 25
e 472 25
e 620 25
e 638 25
e 784 25
e 789 25
e 955 25
e 1029 25
e 1063 25
e 36 26
e 201 26
e 121 27
e 155 27
e 218 27
e 685 27
e 696 27
e 724 27
e 756 27
e 898 27
e 1009 27
e 1026 27
e 1132 27
e 1208 27
e 1242 27
e 1331 27
e 1350 27
e 1351 27
e 1352 27
e 1353 27
e 1354 27
e 1355 27
e 1356 27
e 1357 27
e 1358 27
e 1359 27
e 44 28
e 969 28
e 567 29
e 633 30
e 542 31
e 985 31
e 380 32
e 439 32
e 539 32
e 674 32
e 757 32
e 959 32
e 81 33
e 777 33
e 854 33
e 147 34
e 633 35
e 357 36
e 627 36
e 968 36
e 457 37
e 806 38
e 854 38
e 638 39
e 147 40
e 264 41
e 675 41
e 147 42
e 400 43
e 408 43
e 464 43
e 682 43
e 864 43
e 1001 43
e 1263 43
e 865 45
e 1250 45
e 99 46
e 458 47
e 326 48
e 345 48
e 562 48
e 783 48
e 1065 48
e 1095 48
e 345 49
e 997 49
e 186 50
e 138 51
e 1162 51
e 103 52
e 233 52
e 428 52
e 355 53
e 704 54
e 858 54
e 784 55
e 573 56
e 1092 56
e 110 57
e 267 57
e 260 58
e 885 58
e 1093 58
e 1217 58
e 1218 58
e 567 59
e 906 59
e 136 60
e 595 61
e 644 61
e 760 61
e 567 62
e 204 63
e 775 63
e 828 63
e 835 63
e 967 63
e 192 64
e 851 64
e 909 64
e 1275 64
e 136 65
e 162 66
e 942 66
e 1254 66
e 72 67
e 163 67
e 336 67
e 461 67
e 1168 67
e 1432 67
e 595 68
e 563 69
e 1240 69
e 147 70
e 158 70
e 362 70
e 1403 70
e 1404 70
e 282 71
e 163 72
e 328 72
e 363 72
e 426 72
e 461 72
e 565 72
e 632 72
e 745 72
e 769 72
e 899 72
e 980 72
e 1117 72
e 1145 72
e 1201 72
e 1202 72
e 1203 72
e 451 73
e 844 74
e 1406 74
e 683 75
e 755 75
e 615 76
e 276 77
e 756 77
e 756 78
e 436 79
e 220 80
e 223 80
e 281 80
e 301 80
e 490 80
e 169 81
e 202 81
e 367 81
e 495 81
e 626 81
e 1067 81
e 1179 81
e 1180 81
e 1181 81
e 1182 81
e 305 82
e 585 82
e 753 82
e 788 82
e 148 83
e 366 83
e 433 83
e 522 83
e 1165 83
e 270 84
e 184 85
e 542 85
e 819 85
e 820 85
e 891 85
e 985 85
e 1127 85
e 1173 85
e 807 86
e 756 87
e 961 88
e 286 89
e 715 89
e 1406 89
e 384 90
e 563 90
e 572 90
e 708 90
e 819 90
e 905 90
e 781 91
e 908 91
e 830 92
e 965 92
e 819 93
e 357 94
e 711 95
e 367 96
e 1231 96
e 1232 96
e 1261 96
e 846 97
e 112 98
e 121 98
e 179 98
e 186 98
e 251 98
e 252 98
e 266 98
e 276 98
e 324 98
e 513 98
e 658 98
e 681 98
e 731 98
e 775 98
e 810 98
e 913 98
e 937 98
e 1021 98
e 1040 98
e 1171 98
e 1179 98
e 1241 98
e 1373 98
e 1374 98
e 1375 98
e 1376 98
e 1377 98
e 1378 98
e 1379 98
e 367 99
e 850 99
e 406 100
e 147 101
e 956 102
e 430 104
e 134 105
e 628 106
e 819 106
e 1451 106
e 1452 106
e 969 107
e 186 108
e 606 109
e 267 110
e 956 111
e 308 112
e 131 113
e 1099 115
e 131 116
e 147 117
e 273 118
e 458 119
e 638 119
e 633 120
e 1036 121
e 189 122
e 252 122
e 280 122
e 338 122
e 425 122
e 471 122
e 513 122
e 536 122
e 849 122
e 854 122
e 1084 122
e 1273 122
e 1275 122
e 213 123
e 844 123
e 267 124
e 367 124
e 953 124
e 979 124
e 1087 124
e 567 125
e 155 126
e 595 126
e 875 126
e 332 127
e 414 127
e 303 128
e 215 129
e 383 129
e 506 129
e 532 129
e 591 129
e 612 129
e 1101 129
e 134 130
e 294 130
e 343 130
e 567 130
e 154 131
e 166 131
e 303 131
e 386 131
e 460 131
e 614 131
e 678 131
e 995 131
e 1030 131
e 555 132
e 648 133
e 961 133
e 136 134
e 277 134
e 290 134
e 633 134
e 842 134
e 853 134
e 859 134
e 998 134
e 1034 134
e 1036 134
e 1070 134
e 1126 134
e 147 135
e 209 136
e 225 136
e 266 136
e 274 136
e 342 136
e 396 136
e 474 136
e 622 136
e 633 136
e 693 136
e 725 136
e 886 136
e 919 136
e 926 136
e 998 136
e 1137 136
e 271 137
e 294 138
e 333 138
e 892 138
e 1130 138
e 258 139
e 743 139
e 1310 139
e 345 140
e 226 141
e 310 141
e 361 141
e 489 141
e 957 141
e 819 142
e 750 143
e 196 144
e 837 145
e 301 146
e 1227 146
e 177 147
e 195 147
e 242 147
e 246 147
e 253 147
e 282 147
e 295 147
e 297 147
e 299 147
e 300 147
e 312 147
e 376 147
e 447 147
e 478 147
e 480 147
e 511 147
e 531 147
e 535 147
e 544 147
e 547 147
e 557 147
e 570 147
e 589 147
e 597 147
e 624 147
e 677 147
e 741 147
e 763 147
e 797 147
e 840 147
e 851 147
e 852 147
e 897 147
e 907 147
e 910 147
e 918 147
e 978 147
e 981 147
e 992 147
e 999 147
e 1007 147
e 1022 147
e 1031 147
e 1049 147
e 1058 147
e 1097 147
e 1109 147
e 1153 147
e 1169 147
e 187 148
e 530 148
e 1148 148
e 379 149
e 721 149
e 671 150
e 1047 150
e 472 151
e 604 152
e 819 152
e 213 153
e 1113 153
e 188 154
e 257 154
e 358 154
e 441 154
e 751 154
e 758 154
e 811 154
e 899 154
e 1145 154
e 1205 154
e 1033 156
e 1286 156
e 712 157
e 777 157
e 1170 157
e 1073 158
e 1123 158
e 1417 158
e 199 159
e 224 160
e 232 160
e 450 161
e 707 161
e 391 162
e 421 162
e 584 162
e 901 162
e 755 164
e 202 165
e 448 165
e 799 165
e 302 166
e 459 166
e 661 166
e 997 166
e 1029 166
e 755 167
e 281 168
e 445 168
e 367 169
e 1113 170
e 454 171
e 1107 171
e 229 172
e 304 172
e 406 173
e 823 174
e 1155 174
e 861 175
e 247 176
e 961 178
e 548 179
e 750 179
e 819 179
e 1017 179
e 664 180
e 844 180
e 920 180
e 1113 180
e 711 181
e 793 181
e 397 182
e 201 183
e 819 184
e 204 185
e 970 188
e 438 190
e 670 190
e 361 191
e 317 192
e 851 192
e 909 192
e 333 193
e 494 194
e 615 194
e 1437 194
e 1256 196
e 418 197
e 429 197
e 524 198
e 262 199
e 443 199
e 458 199
e 398 200
e 1435 200
e 929 201
e 247 202
e 448 202
e 810 202
e 1074 202
e 335 203
e 529 203
e 1275 203
e 350 204
e 567 204
e 844 204
e 1129 204
e 1015 205
e 1212 205
e 1020 206
e 367 207
e 1067 207
e 345 208
e 1212 208
e 271 210
e 541 210
e 636 210
e 1275 210
e 257 211
e 243 212
e 415 212
e 484 212
e 538 212
e 588 212
e 634 212
e 259 213
e 355 213
e 1381 213
e 294 214
e 920 214
e 1398 214
e 1413 214
e 476 216
e 647 217
e 377 218
e 819 219
e 823 220
e 834 220
e 856 220
e 1123 220
e 1427 220
e 633 221
e 259 222
e 556 222
e 834 222
e 844 222
e 281 223
e 301 223
e 344 223
e 348 223
e 387 223
e 405 223
e 519 223
e 905 223
e 1410 223
e 1421 223
e 1422 223
e 1423 223
e 713 224
e 861 224
e 1235 224
e 595 227
e 736 228
e 1363 228
e 1364 228
e 339 229
e 321 230
e 345 230
e 779 231
e 866 231
e 951 231
e 517 232
e 584 232
e 710 232
e 1259 232
e 318 233
e 603 233
e 1029 233
e 1042 233
e 659 234
e 1002 234
e 1015 234
e 1101 234
e 582 235
e 1221 235
e 603 236
e 466 237
e 455 238
e 652 238
e 1130 238
e 711 239
e 1396 239
e 915 240
e 965 240
e 1394 240
e 1395 240
e 1396 240
e 1397 240
e 281 241
e 394 241
e 638 241
e 819 241
e 820 241
e 870 241
e 1080 241
e 1156 241
e 272 242
e 415 243
e 767 243
e 964 243
e 691 244
e 819 245
e 655 247
e 1074 247
e 1429 247
e 385 248
e 638 249
e 344 250
e 301 251
e 1026 251
e 1064 251
e 513 252
e 524 252
e 667 252
e 777 252
e 854 252
e 868 252
e 979 252
e 1056 252
e 1130 252
e 1193 252
e 1233 252
e 465 253
e 676 253
e 688 253
e 791 253
e 819 253
e 1015 253
e 1124 254
e 660 255
e 784 255
e 804 255
e 1047 255
e 311 256
e 572 256
e 358 257
e 563 257
e 656 257
e 749 257
e 776 257
e 808 257
e 811 257
e 818 257
e 821 257
e 847 257
e 881 257
e 1043 257
e 444 259
e 1102 259
e 1149 259
e 543 260
e 950 260
e 819 261
e 1171 261
e 341 263
e 638 263
e 367 264
e 1416 264
e 800 265
e 1168 266
e 367 267
e 488 267
e 654 267
e 937 267
e 942 267
e 1067 267
e 1240 267
e 1348 267
e 1349 267
e 458 268
e 1170 268
e 451 269
e 703 269
e 483 270
e 1054 270
e 1081 270
e 327 271
e 566 271
e 575 271
e 580 271
e 605 271
e 934 271
e 1014 271
e 1023 271
e 1048 271
e 880 272
e 410 273
e 1064 273
e 345 275
e 1168 275
e 467 276
e 643 276
e 687 276
e 287 278
e 319 278
e 406 278
e 361 279
e 889 279
e 1103 279
e 301 281
e 348 281
e 486 281
e 519 281
e 1400 281
e 1410 281
e 952 283
e 898 284
e 512 285
e 734 285
e 823 285
e 715 286
e 318 287
e 406 287
e 432 287
e 914 287
e 966 287
e 1393 287
e 448 288
e 510 288
e 518 288
e 1115 288
e 392 289
e 1086 289
e 689 292
e 711 293
e 615 294
e 359 296
e 516 298
e 405 301
e 534 301
e 905 301
e 1114 301
e 1406 301
e 1408 301
e 337 302
e 563 302
e 638 302
e 844 302
e 948 302
e 854 303
e 339 304
e 788 305
e 313 306
e 351 306
e 395 306
e 692 306
e 1060 306
e 1328 306
e 527 307
e 642 307
e 1157 308
e 1057 309
e 384 313
e 1288 313
e 1294 313
e 755 314
e 384 315
e 397 315
e 846 315
e 857 315
e 550 316
e 886 316
e 406 318
e 760 319
e 774 319
e 960 319
e 998 319
e 709 320
e 954 320
e 1040 320
e 1132 320
e 1187 320
e 1210 320
e 1385 320
e 1386 320
e 1387 320
e 352 321
e 703 321
e 831 321
e 1212 321
e 466 322
e 920 322
e 1240 322
e 361 323
e 333 324
e 350 324
e 1130 324
e 1240 324
e 952 325
e 613 328
e 766 328
e 1113 328
e 961 330
e 530 331
e 956 331
e 819 332
e 419 333
e 757 333
e 838 333
e 904 333
e 1142 333
e 1150 333
e 1012 334
e 1013 334
e 653 335
e 1140 335
e 361 336
e 384 337
e 567 337
e 603 337
e 890 337
e 1212 337
e 961 339
e 1168 340
e 1409 340
e 620 341
e 638 341
e 784 341
e 787 341
e 955 341
e 1029 341
e 1041 341
e 1063 341
e 446 343
e 520 345
e 594 345
e 606 345
e 783 345
e 969 345
e 1065 345
e 1091 345
e 1095 345
e 868 346
e 638 347
e 955 347
e 485 348
e 490 348
e 593 348
e 1399 348
e 1400 348
e 1401 348
e 465 349
e 430 350
e 539 350
e 644 351
e 765 351
e 394 352
e 396 352
e 474 352
e 477 352
e 658 352
e 567 353
e 906 353
e 398 354
e 572 355
e 584 355
e 737 355
e 742 355
e 757 355
e 759 355
e 844 355
e 987 355
e 1070 355
e 1228 355
e 1229 355
e 708 356
e 468 359
e 1071 359
e 567 360
e 641 360
e 1079 360
e 1011 361
e 1104 361
e 768 362
e 1158 363
e 1009 364
e 846 365
e 736 366
e 744 366
e 1040 366
e 1144 366
e 504 367
e 546 367
e 732 367
e 801 367
e 879 367
e 953 367
e 974 367
e 1055 367
e 1067 367
e 1411 367
e 963 368
e 924 369
e 983 369
e 1441 369
e 883 370
e 983 370
e 961 371
e 465 372
e 605 372
e 890 372
e 1418 372
e 866 373
e 946 374
e 488 375
e 1240 375
e 1289 376
e 970 378
e 439 380
e 539 380
e 674 380
e 757 380
e 959 380
e 577 381
e 878 381
e 1088 381
e 567 382
e 730 383
e 1244 384
e 1294 384
e 1298 384
e 663 385
e 801 388
e 457 389
e 561 389
e 938 389
e 1041 389
e 1044 389
e 1210 389
e 1211 389
e 1025 390
e 1025 391
e 683 393
e 906 393
e 1112 393
e 870 394
e 1021 394
e 1081 395
e 1400 395
e 462 397
e 710 397
e 1433 397
e 1434 397
e 597 398
e 407 399
e 603 399
e 1252 400
e 1192 401
e 638 402
e 1092 402
e 569 403
e 1072 403
e 433 404
e 490 405
e 905 405
e 908 405
e 432 406
e 619 406
e 654 406
e 855 406
e 917 406
e 603 407
e 708 408
e 908 408
e 1021 408
e 1130 409
e 1113 411
e 1255 412
e 1164 413
e 1101 414
e 767 415
e 964 415
e 1018 415
e 1164 415
e 442 416
e 754 417
e 429 418
e 433 418
e 522 418
e 1040 418
e 1371 418
e 625 420
e 705 420
e 729 420
e 833 420
e 1073 420
e 1076 420
e 464 422
e 1418 422
e 638 423
e 593 424
e 448 426
e 829 426
e 1172 427
e 585 430
e 778 430
e 1273 430
e 1344 430
e 458 431
e 623 433
e 764 433
e 819 433
e 832 433
e 867 433
e 873 433
e 973 433
e 1024 433
e 1052 433
e 1089 433
e 1144 433
e 1113 434
e 844 435
e 961 435
e 601 436
e 603 436
e 629 436
e 635 436
e 894 436
e 1045 436
e 1154 436
e 674 437
e 970 437
e 539 439
e 674 439
e 959 439
e 721 440
e 450 442
e 554 442
e 1041 442
e 895 444
e 1094 444
e 1141 444
e 584 445
e 601 445
e 603 445
e 969 445
e 979 445
e 1135 445
e 571 446
e 685 446
e 961 446
e 1120 446
e 518 448
e 810 448
e 1115 448
e 1264 448
e 970 449
e 485 450
e 703 451
e 1139 451
e 1050 452
e 1092 452
e 671 453
e 468 454
e 754 454
e 930 454
e 1084 454
e 815 456
e 639 458
e 697 458
e 698 458
e 701 458
e 826 458
e 997 459
e 970 463
e 605 464
e 819 464
e 905 464
e 920 464
e 1418 464
e 819 465
e 990 465
e 1100 465
e 1164 465
e 1172 465
e 993 466
e 1287 466
e 1130 469
e 868 470
e 638 472
e 807 472
e 778 473
e 1028 474
e 1086 474
e 946 475
e 719 476
e 1037 479
e 567 481
e 721 482
e 1401 485
e 516 486
e 1410 486
e 1172 487
e 1057 488
e 905 490
e 760 491
e 497 492
e 819 493
e 739 494
e 819 494
e 925 494
e 633 495
e 961 496
e 946 497
e 690 498
e 736 499
e 1056 500
e 1101 501
e 549 502
e 780 503
e 908 503
e 971 503
e 1240 503
e 567 504
e 574 505
e 1118 505
e 1125 505
e 638 507
e 638 508
e 1168 508
e 844 509
e 657 511
e 827 512
e 1111 512
e 1164 512
e 1447 512
e 1448 512
e 524 513
e 777 513
e 854 513
e 868 513
e 979 513
e 1130 513
e 1193 513
e 1233 513
e 1113 514
e 811 515
e 567 516
e 941 517
e 1115 518
e 1402 518
e 595 519
e 1421 519
e 719 521
e 1100 521
e 973 522
e 1039 522
e 1144 522
e 811 523
e 652 524
e 760 524
e 979 524
e 1059 524
e 1130 524
e 1196 524
e 819 525
e 819 526
e 1436 526
e 772 527
e 1075 527
e 536 528
e 1172 528
e 961 529
e 1131 529
e 947 530
e 819 533
e 854 535
e 979 535
e 1442 536
e 1443 536
e 1444 536
e 661 537
e 894 537
e 1042 537
e 674 539
e 757 539
e 959 539
e 819 540
e 895 542
e 985 542
e 1174 542
e 1175 542
e 770 543
e 950 543
e 760 545
e 1445 548
e 555 549
e 1134 549
e 1458 550
e 595 551
e 819 551
e 844 552
e 1092 553
e 702 555
e 1383 555
e 641 558
e 1079 558
e 695 559
e 1368 559
e 1415 559
e 667 560
e 1067 560
e 1424 560
e 938 561
e 1041 561
e 1044 561
e 609 563
e 662 563
e 746 563
e 944 563
e 1269 563
e 1270 563
e 1271 563
e 1272 563
e 1074 564
e 1113 565
e 735 567
e 762 567
e 771 567
e 825 567
e 835 567
e 860 567
e 863 567
e 962 567
e 987 567
e 1002 567
e 1085 567
e 1098 567
e 1110 567
e 1137 567
e 648 568
e 670 568
e 793 569
e 657 570
e 802 570
e 689 572
e 872 572
e 930 572
e 1116 572
e 727 574
e 974 576
e 755 578
e 802 579
e 803 579
e 814 579
e 819 579
e 760 581
e 595 583
e 831 584
e 1131 584
e 1147 584
e 791 585
e 819 585
e 1130 585
e 811 586
e 1332 586
e 712 587
e 1055 587
e 1130 590
e 638 592
e 869 593
e 936 594
e 1240 594
e 615 595
e 696 595
e 721 595
e 742 595
e 824 595
e 831 595
e 928 595
e 940 595
e 1032 595
e 1034 595
e 1110 595
e 646 596
e 944 596
e 920 598
e 773 599
e 815 600
e 1060 600
e 1294 600
e 970 601
e 1037 601
e 778 602
e 1004 602
e 966 603
e 970 603
e 819 604
e 689 607
e 811 607
e 1212 607
e 887 608
e 819 609
e 844 609
e 1418 610
e 621 611
e 991 611
e 991 612
e 791 613
e 1099 613
e 1101 615
e 1078 616
e 1125 616
e 925 617
e 723 618
e 1108 620
e 988 621
e 1067 623
e 866 630
e 1131 630
e 1056 631
e 720 633
e 742 633
e 916 633
e 998 633
e 1017 633
e 1027 633
e 755 637
e 784 638
e 787 638
e 931 638
e 948 638
e 955 638
e 996 638
e 998 638
e 1029 638
e 1046 638
e 1063 638
e 1092 638
e 1151 638
e 970 640
e 1079 641
e 844 645
e 944 646
e 1129 646
e 1230 647
e 1392 647
e 670 648
e 812 648
e 994 648
e 755 649
e 761 650
e 780 650
e 1083 650
e 793 651
e 1068 651
e 854 652
e 1087 652
e 1130 652
e 1074 655
e 1412 655
e 710 657
e 816 657
e 1165 658
e 888 659
e 844 662
e 1310 662
e 961 663
e 844 664
e 920 664
e 961 664
e 1113 664
e 1275 664
e 886 665
e 736 666
e 1195 667
e 844 668
e 755 669
e 970 669
e 1020 672
e 778 673
e 1275 673
e 757 674
e 959 674
e 1449 675
e 714 676
e 1230 679
e 717 680
e 874 680
e 937 681
e 949 681
e 1275 681
e 979 682
e 755 683
e 809 683
e 841 683
e 1110 683
e 1119 683
e 719 684
e 940 684
e 1122 685
e 1145 686
e 1190 686
e 1191 686
e 968 687
e 1015 688
e 922 689
e 926 689
e 961 689
e 1152 689
e 920 690
e 1020 690
e 1146 690
e 701 691
e 1264 692
e 1118 694
e 945 697
e 898 699
e 956 700
e 1420 701
e 1436 704
e 820 706
e 823 708
e 911 708
e 912 708
e 1368 709
e 935 711
e 951 712
e 974 712
e 1130 712
e 760 716
e 819 717
e 831 718
e 1006 719
e 1162 719
e 1261 719
e 1295 719
e 1299 719
e 1300 719
e 1301 719
e 1302 719
e 1303 719
e 1304 719
e 1305 719
e 1306 719
e 1307 719
e 1308 719
e 1309 719
e 845 722
e 1275 723
e 798 726
e 943 726
e 1051 726
e 1240 727
e 760 728
e 819 731
e 1001 731
e 879 732
e 1067 732
e 881 733
e 786 736
e 898 736
e 1130 740
e 906 747
e 1052 748
e 879 752
e 788 753
e 841 755
e 871 755
e 1110 755
e 1119 755
e 822 760
e 824 760
e 877 760
e 964 767
e 848 768
e 866 768
e 950 770
e 815 772
e 993 773
e 1143 773
e 1222 773
e 1223 773
e 974 777
e 1130 777
e 839 778
e 968 778
e 1166 779
e 1035 782
e 1029 784
e 946 785
e 1171 789
e 844 790
e 1066 790
e 891 791
e 1106 791
e 1266 791
e 1267 791
e 1268 791
e 1025 792
e 1117 792
e 1006 793
e 1099 794
e 961 795
e 1042 796
e 1101 796
e 943 798
e 1051 798
e 810 799
e 1078 799
e 1125 799
e 1332 799
e 1164 800
e 974 801
e 807 802
e 1315 802
e 1035 805
e 865 811
e 1161 811
e 1163 811
e 1170 813
e 1052 817
e 972 818
e 1176 818
e 1177 818
e 1178 818
e 844 819
e 862 819
e 900 819
e 966 819
e 1013 819
e 1131 819
e 1172 819
e 942 821
e 1224 821
e 930 824
e 1219 824
e 1220 824
e 1221 824
e 965 830
e 998 831
e 961 836
e 890 837
e 988 843
e 966 844
e 983 844
e 1035 844
e 1077 844
e 1115 844
e 1132 844
e 1171 844
e 1266 844
e 1363 844
e 1382 844
e 1446 844
e 1315 845
e 1016 846
e 1426 846
e 1082 849
e 1438 849
e 909 851
e 914 854
e 974 854
e 979 854
e 1193 854
e 1245 854
e 1389 854
e 997 861
e 920 865
e 1002 867
e 984 868
e 1021 870
e 952 876
e 953 879
e 1102 881
e 883 882
e 983 882
e 924 883
e 1275 883
e 966 884
e 1008 886
e 890 887
e 1103 889
e 1127 891
e 956 893
e 1164 894
e 993 896
e 1312 896
e 1005 898
e 1040 898
e 1052 898
e 926 901
e 961 902
e 1099 903
e 1003 904
e 1284 904
e 1092 906
e 1110 906
e 956 911
e 1035 920
e 1077 920
e 1124 920
e 930 921
e 972 921
e 1087 921
e 1104 922
e 1020 923
e 983 924
e 942 927
e 1116 930
e 1103 932
e 1014 935
e 1025 937
e 1172 937
e 1041 938
e 1044 938
e 1130 939
e 958 940
e 977 940
e 1101 940
e 1140 940
e 971 942
e 1106 942
e 1180 942
e 1310 942
e 1368 942
e 1204 943
e 1331 943
e 1166 946
e 1286 946
e 1392 946
e 1029 948
e 1168 952
e 1055 953
e 1372 953
e 1261 954
e 1101 956
e 1010 961
e 1048 961
e 1121 961
e 1136 961
e 1159 961
e 1155 962
e 1042 963
e 1101 963
e 1113 963
e 1129 963
e 1167 963
e 1396 965
e 1101 970
e 979 971
e 1055 971
e 1087 971
e 1289 972
e 1294 972
e 1341 972
e 1380 972
e 1371 973
e 1055 974
e 1170 974
e 1003 975
e 1020 976
e 1056 979
e 1183 979
e 1186 979
e 1002 980
e 1212 980
e 1002 982
e 1441 983
e 1064 986
e 1168 989
e 1001 1000
e 1275 1014
e 1053 1015
e 1100 1015
e 1171 1019
e 1064 1026
e 1086 1028
e 1312 1038
e 1128 1040
e 1044 1041
e 1090 1041
e 1131 1041
e 1273 1041
e 1419 1051
e 1105 1055
e 1170 1056
e 1171 1061
e 1164 1062
e 1235 1065
e 1144 1067
e 1265 1067
e 1186 1069
e 1284 1071
e 1368 1071
e 1390 1073
e 1392 1073
e 1391 1074
e 1275 1077
e 1345 1081
e 1346 1081
e 1212 1084
e 1240 1087
e 1123 1088
e 1275 1093
e 1164 1096
e 1155 1101
e 1291 1104
e 1133 1106
e 1327 1106
e 1138 1113
e 1225 1123
e 1430 1123
e 1431 1123
e 1207 1129
e 1329 1129
e 1170 1130
e 1184 1130
e 1185 1130
e 1368 1131
e 1388 1132
e 1409 1134
e 1212 1148
e 1160 1155
e 1392 1166
e 1186 1181
e 1187 1186
e 1188 1186
e 1189 1186
e 1275 1187
e 1332 1189
e 1193 1192
e 1194 1192
e 1240 1195
e 1344 1200
e 1211 1202
e 1212 1202
e 1207 1206
e 1208 1206
e 1209 1206
e 1210 1206
e 1330 1207
e 1213 1212
e 1214 1212
e 1215 1212
e 1384 1215
e 1234 1216
e 1273 1221
e 1256 1224
e 1275 1226
e 1236 1235
e 1237 1235
e 1238 1235
e 1239 1235
e 1241 1240
e 1242 1240
e 1243 1240
e 1244 1240
e 1245 1240
e 1246 1240
e 1247 1240
e 1248 1240
e 1249 1240
e 1294 1242
e 1284 1243
e 1251 1244
e 1252 1251
e 1253 1251
e 1312 1255
e 1257 1256
e 1258 1256
e 1260 1259
e 1262 1261
e 1275 1266
e 1428 1269
e 1274 1273
e 1276 1275
e 1277 1275
e 1278 1275
e 1279 1275
e 1280 1275
e 1281 1275
e 1282 1275
e 1283 1275
e 1285 1284
e 1425 1286
e 1290 1289
e 1292 1289
e 1293 1289
e 1295 1294
e 1296 1294
e 1297 1294
e 1341 1296
e 1312 1311
e 1313 1312
e 1314 1312
e 1316 1315
e 1317 1315
e 1318 1315
e 1319 1315
e 1320 1315
e 1321 1315
e 1322 1315
e 1323 1315
e 1324 1315
e 1325 1315
e 1326 1315
e 1365 1329
e 1366 1329
e 1367 1329
e 1333 1332
e 1334 1332
e 1335 1332
e 1336 1332
e 1337 1332
e 1338 1332
e 1339 1332
e 1340 1332
e 1342 1341
e 1344 1343
e 1347 1344
e 1360 1344
e 1347 1346
e 1388 1355
e 1369 1368
e 1370 1368
e 1371 1368
e 1424 1371
e 1454 1371
e 1457 1379
e 1396 1394
e 1396 1395
e 1414 1396
e 1405 1402
e 1417 1403
e 1407 1406
e 1423 1410
e 1450 1432
e 1453 1447
e 1455 1453
e 1456 1453
